Order
4347864.29
4343348.43
4375040.07
4355426.54
4345977.36
4346752.34
4328533.99
4395102.22
4328341.91
4357464.25
4303757.96
4358010.33
4354315.77
4328673.88
4344096.10
4340445.17
4398116.53
4351635.70
4373973.85
4347084.44
4349690.27
4372957.16
4377769.64
4362320.49
4324680.89
4410994.84
4343139.84
4357088.88
4372330.51
4368658.22
Cycle
4827971.77
4847077.40
4922384.01
4888631.31
4836256.13
4890498.46
4876935.03
4819251.37
4869631.42
4880531.93
4854464.65
4844796.18
4886511.36
4816576.20
4893260.10
4877535.74
4816395.74
4834448.85
4891141.69
